c status 21 1469388616975
c status 20 1469388616977
c status 18 1469388616978
s td 10 18 27
b 1 1 2 13 22 23 26 6 21 25 24 20
b 2 2 13 15 12 22 18 23 27 3 26 6 19 8 21 9 25 24 20
b 3 5 14 13 12 18 3 19 21 25 24 20
b 4 14 13 15 12 22 18 23 27 3 26 6 19 8 21 9 25 24 20
b 5 4 17 13 15 12 22 18 23 27 24 20
b 6 17 13 15 12 22 18 23 27 3 26 6 19 8 21 9 25 24 20
b 7 7 11 13 15 22 18 26 19 8 25 20
b 8 11 13 15 12 22 18 23 27 3 26 6 19 8 21 9 25 24 20
b 9 10 16 13 15 12 23 26 19 21 9 20
b 10 16 13 15 12 22 18 23 27 3 26 6 19 8 21 9 25 24 20
1 2
2 4
2 10
4 8
10 6
10 9
8 7
6 5
4 3
